100
150
100
100
99
99
99
99
98
97
97
97
96
96
95
95
95
94
92
91
91
90
90
89
87
84
83
83
83
82
82
82
82
81
80
80
79
79
79
78
78
77
77
77
75
74
73
69
68
65
64
64
63
62
62
62
62
62
61
61
60
58
57
56
55
51
49
48
47
46
45
45
44
43
42
41
39
38
38
37
36
36
36
35
34
34
34
33
33
32
32
31
31
29
28
26
26
25
25
20
20
20
